Traveling Salesman Problem/TSP_generados/Aleatorio1621103450_14.tsp
NAME: Aleatorio1621103450_14.tsp
COMMENT: Randomly generated scenario
TYPE: TSP
DIMENSION: 14
EDGE_WEIGHT_TYPE: ATT
NODE_COORD_SECTION
1 6.14 48.23
2 9.3 46.62
3 2.8 38.64
4 11.54 11.57
5 7.45 2.25
6 8.4 14.81
7 6.8 11.59
8 26.58 41.12
9 35.54 22.33
10 33.18 27.09
11 39.58 45.1
12 16.03 0.48
13 34.2 36.24
14 27.55 44.53
