Traveling Salesman Problem/TSP_generados/Aleatorio1621103450_14.opt.tour
NAME: Aleatorio1621103450_14.opt.tour
COMMENT: Optimal solution for Aleatorio1621103450_14 (153.35568421257497)
TYPE: TOUR
DIMENSION: 14
TOUR_SECTION
1 2 8 14 11 13 10 9 12 5 4 7 6 3
-1
EOF
